unknown
(model
; cardinality of BoundSet is 3
(declare-sort BoundSet 0)
; rep: @uc_BoundSet_0
; rep: @uc_BoundSet_1
; rep: @uc_BoundSet_2
; cardinality of UnboundSet is 1
(declare-sort UnboundSet 0)
(declare-fun groundTerm_4 () UnboundSet)
(define-fun Smokes ((BOUND_VARIABLE_425 BoundSet)) Bool true)
(define-fun LeansAgainst ((BOUND_VARIABLE_432 BoundSet) (BOUND_VARIABLE_433 BoundSet)) Bool true)
(define-fun HasMissingPersonFlierPosted ((BOUND_VARIABLE_432 BoundSet) (BOUND_VARIABLE_433 BoundSet)) Bool true)
(define-fun IndifferentToMissingPersonFlyers ((BOUND_VARIABLE_425 BoundSet)) Bool false)
)
sat
(model
; cardinality of BoundSet is 1
(declare-sort BoundSet 0)
; rep: @uc_BoundSet_0
; cardinality of UnboundSet is 1
(declare-sort UnboundSet 0)
(declare-fun groundTerm_6 () UnboundSet)
(define-fun Smokes ((BOUND_VARIABLE_462 BoundSet)) Bool true)
(define-fun LeansAgainst ((BOUND_VARIABLE_469 BoundSet) (BOUND_VARIABLE_470 BoundSet)) Bool true)
(define-fun HasMissingPersonFlierPosted ((BOUND_VARIABLE_469 BoundSet) (BOUND_VARIABLE_470 BoundSet)) Bool true)
(define-fun IndifferentToMissingPersonFlyers ((BOUND_VARIABLE_462 BoundSet)) Bool false)
)
